pair_style spin/exchange 3.5
pair_coeff * * exchange 3.4 0.02726 0.2171 1.841 offset yes

group solute  type 1
group solvent type 2
